(set-logic QF_LRA)
(declare-fun fluent_counter_t3@1 () Real)
(declare-fun fluent_counter_t4@1 () Real)
(declare-fun fluent_busy_@1 () Bool)
(declare-fun fluent_started_i0_t0@0 () Bool)
(declare-fun fluent_started_i1_t0@0 () Bool)
(declare-fun fluent_started_i0_t1@0 () Bool)
(declare-fun fluent_started_i1_t1@0 () Bool)
(declare-fun fluent_started_i0_t2@0 () Bool)
(declare-fun fluent_started_i1_t2@0 () Bool)
(declare-fun fluent_started_i0_t3@0 () Bool)
(declare-fun fluent_started_i1_t3@0 () Bool)
(declare-fun fluent_started_i0_t4@0 () Bool)
(declare-fun fluent_started_i0_t0@1 () Bool)
(declare-fun fluent_ready_i0_t0@0 () Bool)
(declare-fun fluent_ready_i1_t0@0 () Bool)
(declare-fun fluent_ready_i0_t1@0 () Bool)
(declare-fun fluent_ready_i1_t1@0 () Bool)
(declare-fun fluent_ready_i0_t2@0 () Bool)
(declare-fun fluent_ready_i1_t2@0 () Bool)
(declare-fun fluent_ready_i0_t3@0 () Bool)
(declare-fun fluent_ready_i1_t3@0 () Bool)
(declare-fun fluent_ready_i0_t4@0 () Bool)
(declare-fun fluent_ready_i1_t4@0 () Bool)
(declare-fun fluent_started_i0_t3@1 () Bool)
(declare-fun fluent_started_i1_t4@0 () Bool)
(declare-fun fluent_started_i1_t3@1 () Bool)
(declare-fun fluent_started_i0_t4@1 () Bool)
(declare-fun fluent_busy_@0 () Bool)
(declare-fun fluent_started_i1_t4@1 () Bool)
(declare-fun fluent_treated_i0_t0@0 () Bool)
(declare-fun fluent_treated_i1_t0@0 () Bool)
(declare-fun fluent_treated_i0_t1@0 () Bool)
(declare-fun fluent_treated_i1_t1@0 () Bool)
(declare-fun fluent_treated_i0_t2@0 () Bool)
(declare-fun fluent_treated_i1_t2@0 () Bool)
(declare-fun fluent_treated_i0_t3@0 () Bool)
(declare-fun fluent_treated_i1_t3@0 () Bool)
(declare-fun fluent_treated_i0_t4@0 () Bool)
(declare-fun fluent_treated_i1_t4@0 () Bool)
(declare-fun fluent_treated_i0_t1@1 () Bool)
(declare-fun fluent_treated_i1_t1@1 () Bool)
(declare-fun fluent_treated_i0_t2@1 () Bool)
(declare-fun fluent_treated_i1_t2@1 () Bool)
(declare-fun fluent_treated_i0_t3@1 () Bool)
(declare-fun fluent_treated_i1_t3@1 () Bool)
(declare-fun fluent_treated_i0_t4@1 () Bool)
(declare-fun fluent_treated_i1_t4@1 () Bool)
(declare-fun fluent_ready_i0_t0@1 () Bool)
(declare-fun fluent_ready_i1_t0@1 () Bool)
(declare-fun fluent_ready_i0_t1@1 () Bool)
(declare-fun fluent_ready_i1_t1@1 () Bool)
(declare-fun fluent_ready_i0_t2@1 () Bool)
(declare-fun fluent_ready_i1_t2@1 () Bool)
(declare-fun fluent_counter_t0@0 () Real)
(declare-fun fluent_ready_i0_t3@1 () Bool)
(declare-fun fluent_ready_i1_t3@1 () Bool)
(declare-fun fluent_counter_t1@0 () Real)
(declare-fun fluent_ready_i0_t4@1 () Bool)
(declare-fun fluent_ready_i1_t4@1 () Bool)
(declare-fun fluent_counter_t2@0 () Real)
(declare-fun fluent_started_i1_t0@1 () Bool)
(declare-fun fluent_counter_t3@0 () Real)
(declare-fun act_make_treatment@1 () Bool)
(declare-fun fluent_counter_t4@0 () Real)
(declare-fun fluent_started_i0_t1@1 () Bool)
(declare-fun dur_make_treatment@1 () Real)
(declare-fun t@1 () Real)
(declare-fun fluent_started_i1_t1@1 () Bool)
(declare-fun parameter_make_treatment_t@1 () Real)
(declare-fun fluent_started_i0_t2@1 () Bool)
(declare-fun parameter_make_treatment_i@1 () Real)
(declare-fun fluent_started_i1_t2@1 () Bool)
(declare-fun parameter_make_treatment_next@1 () Real)
(declare-fun fluent_treated_i0_t0@1 () Bool)
(declare-fun fluent_treated_i1_t0@1 () Bool)
(declare-fun fluent_counter_t0@1 () Real)
(declare-fun fluent_counter_t1@1 () Real)
(declare-fun fluent_counter_t2@1 () Real)
(assert (let ((.def_0 (<= fluent_counter_t2@1 31.0))) (let ((.def_1 (<= 0.0 fluent_counter_t2@1))) (let ((.def_2 (<= fluent_counter_t1@1 31.0))) (let ((.def_3 (<= 0.0 fluent_counter_t1@1))) (let ((.def_4 (= parameter_make_treatment_i@1 1.0))) (let ((.def_5 (= parameter_make_treatment_i@1 0.0))) (let ((.def_6 (or .def_5 .def_4))) (let ((.def_7 (<= fluent_counter_t0@1 31.0))) (let ((.def_8 (<= 0.0 fluent_counter_t0@1))) (let ((.def_9 (= parameter_make_treatment_t@1 6.0))) (let ((.def_10 (= parameter_make_treatment_t@1 5.0))) (let ((.def_11 (= parameter_make_treatment_t@1 4.0))) (let ((.def_12 (= parameter_make_treatment_t@1 3.0))) (let ((.def_13 (= parameter_make_treatment_t@1 2.0))) (let ((.def_14 (or .def_13 .def_12 .def_11 .def_10 .def_9))) (let ((.def_15 (<= fluent_counter_t4@1 31.0))) (let ((.def_16 (= parameter_make_treatment_next@1 6.0))) (let ((.def_17 (= parameter_make_treatment_next@1 5.0))) (let ((.def_18 (= parameter_make_treatment_next@1 4.0))) (let ((.def_19 (= parameter_make_treatment_next@1 3.0))) (let ((.def_20 (= parameter_make_treatment_next@1 2.0))) (let ((.def_21 (or .def_20 .def_19 .def_18 .def_17 .def_16))) (let ((.def_22 (<= 0.0 fluent_counter_t4@1))) (let ((.def_23 (<= fluent_counter_t3@1 31.0))) (let ((.def_24 (<= 0.0 fluent_counter_t3@1))) (let ((.def_25 (and act_make_treatment@1 true .def_9))) (let ((.def_26 (= fluent_counter_t4@0 fluent_counter_t4@1))) (let ((.def_27 (not .def_26))) (let ((.def_28 (=> .def_27 .def_25))) (let ((.def_29 (and act_make_treatment@1 true .def_10))) (let ((.def_30 (= fluent_counter_t3@0 fluent_counter_t3@1))) (let ((.def_31 (not .def_30))) (let ((.def_32 (=> .def_31 .def_29))) (let ((.def_33 (and act_make_treatment@1 true .def_11))) (let ((.def_34 (= fluent_counter_t2@0 fluent_counter_t2@1))) (let ((.def_35 (not .def_34))) (let ((.def_36 (=> .def_35 .def_33))) (let ((.def_37 (and act_make_treatment@1 true .def_12))) (let ((.def_38 (= fluent_counter_t1@0 fluent_counter_t1@1))) (let ((.def_39 (not .def_38))) (let ((.def_40 (=> .def_39 .def_37))) (let ((.def_41 (and act_make_treatment@1 true .def_13))) (let ((.def_42 (= fluent_counter_t0@0 fluent_counter_t0@1))) (let ((.def_43 (not .def_42))) (let ((.def_44 (=> .def_43 .def_41))) (let ((.def_45 (+ t@1 10.0))) (let ((.def_46 (= t@1 .def_45))) (let ((.def_47 (and act_make_treatment@1 true .def_46 .def_4 .def_16))) (let ((.def_48 (= fluent_ready_i1_t4@0 fluent_ready_i1_t4@1))) (let ((.def_49 (not .def_48))) (let ((.def_50 (=> .def_49 .def_47))) (let ((.def_51 (and act_make_treatment@1 true .def_46 .def_5 .def_16))) (let ((.def_52 (= fluent_ready_i0_t4@0 fluent_ready_i0_t4@1))) (let ((.def_53 (not .def_52))) (let ((.def_54 (=> .def_53 .def_51))) (let ((.def_55 (and act_make_treatment@1 true .def_46 .def_4 .def_17))) (let ((.def_56 (= fluent_ready_i1_t3@0 fluent_ready_i1_t3@1))) (let ((.def_57 (not .def_56))) (let ((.def_58 (=> .def_57 .def_55))) (let ((.def_59 (and act_make_treatment@1 true .def_46 .def_5 .def_17))) (let ((.def_60 (= fluent_ready_i0_t3@0 fluent_ready_i0_t3@1))) (let ((.def_61 (not .def_60))) (let ((.def_62 (=> .def_61 .def_59))) (let ((.def_63 (and act_make_treatment@1 true .def_46 .def_4 .def_18))) (let ((.def_64 (= fluent_ready_i1_t2@0 fluent_ready_i1_t2@1))) (let ((.def_65 (not .def_64))) (let ((.def_66 (=> .def_65 .def_63))) (let ((.def_67 (and act_make_treatment@1 true .def_46 .def_5 .def_18))) (let ((.def_68 (= fluent_ready_i0_t2@0 fluent_ready_i0_t2@1))) (let ((.def_69 (not .def_68))) (let ((.def_70 (=> .def_69 .def_67))) (let ((.def_71 (and act_make_treatment@1 true .def_46 .def_4 .def_19))) (let ((.def_72 (= fluent_ready_i1_t1@0 fluent_ready_i1_t1@1))) (let ((.def_73 (not .def_72))) (let ((.def_74 (=> .def_73 .def_71))) (let ((.def_75 (and act_make_treatment@1 true .def_46 .def_5 .def_19))) (let ((.def_76 (= fluent_ready_i0_t1@0 fluent_ready_i0_t1@1))) (let ((.def_77 (not .def_76))) (let ((.def_78 (=> .def_77 .def_75))) (let ((.def_79 (and act_make_treatment@1 true .def_46 .def_4 .def_20))) (let ((.def_80 (= fluent_ready_i1_t0@0 fluent_ready_i1_t0@1))) (let ((.def_81 (not .def_80))) (let ((.def_82 (=> .def_81 .def_79))) (let ((.def_83 (and act_make_treatment@1 true .def_46 .def_5 .def_20))) (let ((.def_84 (= fluent_ready_i0_t0@0 fluent_ready_i0_t0@1))) (let ((.def_85 (not .def_84))) (let ((.def_86 (=> .def_85 .def_83))) (let ((.def_87 (and act_make_treatment@1 true .def_4 .def_9))) (let ((.def_88 (= fluent_started_i1_t4@0 fluent_started_i1_t4@1))) (let ((.def_89 (not .def_88))) (let ((.def_90 (=> .def_89 .def_87))) (let ((.def_91 (and act_make_treatment@1 true .def_5 .def_9))) (let ((.def_92 (= fluent_started_i0_t4@0 fluent_started_i0_t4@1))) (let ((.def_93 (not .def_92))) (let ((.def_94 (=> .def_93 .def_91))) (let ((.def_95 (and act_make_treatment@1 true .def_4 .def_10))) (let ((.def_96 (= fluent_started_i1_t3@0 fluent_started_i1_t3@1))) (let ((.def_97 (not .def_96))) (let ((.def_98 (=> .def_97 .def_95))) (let ((.def_99 (and act_make_treatment@1 true .def_5 .def_10))) (let ((.def_100 (= fluent_started_i0_t3@0 fluent_started_i0_t3@1))) (let ((.def_101 (not .def_100))) (let ((.def_102 (=> .def_101 .def_99))) (let ((.def_103 (and act_make_treatment@1 true .def_4 .def_11))) (let ((.def_104 (= fluent_started_i1_t2@0 fluent_started_i1_t2@1))) (let ((.def_105 (not .def_104))) (let ((.def_106 (=> .def_105 .def_103))) (let ((.def_107 (and act_make_treatment@1 true .def_5 .def_11))) (let ((.def_108 (= fluent_started_i0_t2@0 fluent_started_i0_t2@1))) (let ((.def_109 (not .def_108))) (let ((.def_110 (=> .def_109 .def_107))) (let ((.def_111 (and act_make_treatment@1 true .def_4 .def_12))) (let ((.def_112 (= fluent_started_i1_t1@0 fluent_started_i1_t1@1))) (let ((.def_113 (not .def_112))) (let ((.def_114 (=> .def_113 .def_111))) (let ((.def_115 (and act_make_treatment@1 true .def_5 .def_12))) (let ((.def_116 (= fluent_started_i0_t1@0 fluent_started_i0_t1@1))) (let ((.def_117 (not .def_116))) (let ((.def_118 (=> .def_117 .def_115))) (let ((.def_119 (and act_make_treatment@1 true .def_4 .def_13))) (let ((.def_120 (= fluent_started_i1_t0@0 fluent_started_i1_t0@1))) (let ((.def_121 (not .def_120))) (let ((.def_122 (=> .def_121 .def_119))) (let ((.def_123 (and act_make_treatment@1 true .def_5 .def_13))) (let ((.def_124 (= fluent_started_i0_t0@0 fluent_started_i0_t0@1))) (let ((.def_125 (not .def_124))) (let ((.def_126 (=> .def_125 .def_123))) (let ((.def_127 (+ t@1 4.0))) (let ((.def_128 (= t@1 .def_127))) (let ((.def_129 (and act_make_treatment@1 true .def_128 .def_4 .def_9))) (let ((.def_130 (= fluent_treated_i1_t4@0 fluent_treated_i1_t4@1))) (let ((.def_131 (not .def_130))) (let ((.def_132 (=> .def_131 .def_129))) (let ((.def_133 (and act_make_treatment@1 true .def_128 .def_5 .def_9))) (let ((.def_134 (= fluent_treated_i0_t4@0 fluent_treated_i0_t4@1))) (let ((.def_135 (not .def_134))) (let ((.def_136 (=> .def_135 .def_133))) (let ((.def_137 (and act_make_treatment@1 true .def_128 .def_4 .def_10))) (let ((.def_138 (= fluent_treated_i1_t3@0 fluent_treated_i1_t3@1))) (let ((.def_139 (not .def_138))) (let ((.def_140 (=> .def_139 .def_137))) (let ((.def_141 (and act_make_treatment@1 true .def_128 .def_5 .def_10))) (let ((.def_142 (= fluent_treated_i0_t3@0 fluent_treated_i0_t3@1))) (let ((.def_143 (not .def_142))) (let ((.def_144 (=> .def_143 .def_141))) (let ((.def_145 (and act_make_treatment@1 true .def_128 .def_4 .def_11))) (let ((.def_146 (= fluent_treated_i1_t2@0 fluent_treated_i1_t2@1))) (let ((.def_147 (not .def_146))) (let ((.def_148 (=> .def_147 .def_145))) (let ((.def_149 (and act_make_treatment@1 true .def_128 .def_5 .def_11))) (let ((.def_150 (= fluent_treated_i0_t2@0 fluent_treated_i0_t2@1))) (let ((.def_151 (not .def_150))) (let ((.def_152 (=> .def_151 .def_149))) (let ((.def_153 (and act_make_treatment@1 true .def_128 .def_4 .def_12))) (let ((.def_154 (= fluent_treated_i1_t1@0 fluent_treated_i1_t1@1))) (let ((.def_155 (not .def_154))) (let ((.def_156 (=> .def_155 .def_153))) (let ((.def_157 (and act_make_treatment@1 true .def_128 .def_5 .def_12))) (let ((.def_158 (= fluent_treated_i0_t1@0 fluent_treated_i0_t1@1))) (let ((.def_159 (not .def_158))) (let ((.def_160 (=> .def_159 .def_157))) (let ((.def_161 (and act_make_treatment@1 true .def_128 .def_4 .def_13))) (let ((.def_162 (= fluent_treated_i1_t0@0 fluent_treated_i1_t0@1))) (let ((.def_163 (not .def_162))) (let ((.def_164 (=> .def_163 .def_161))) (let ((.def_165 (and act_make_treatment@1 true .def_128 .def_5 .def_13))) (let ((.def_166 (= fluent_treated_i0_t0@0 fluent_treated_i0_t0@1))) (let ((.def_167 (not .def_166))) (let ((.def_168 (=> .def_167 .def_165))) (let ((.def_169 (and act_make_treatment@1 true .def_128))) (let ((.def_170 (and act_make_treatment@1 true))) (let ((.def_171 (and .def_170 .def_169))) (let ((.def_172 (not .def_171))) (let ((.def_173 (or .def_170 .def_169))) (let ((.def_174 (= fluent_busy_@0 fluent_busy_@1))) (let ((.def_175 (not .def_174))) (let ((.def_176 (=> .def_175 .def_173))) (let ((.def_177 (and .def_176 .def_172 .def_168 .def_164 .def_160 .def_156 .def_152 .def_148 .def_144 .def_140 .def_136 .def_132 .def_126 .def_122 .def_118 .def_114 .def_110 .def_106 .def_102 .def_98 .def_94 .def_90 .def_86 .def_82 .def_78 .def_74 .def_70 .def_66 .def_62 .def_58 .def_54 .def_50 .def_44 .def_40 .def_36 .def_32 .def_28))) (let ((.def_178 (<= 0.0 t@1))) (let ((.def_179 (and .def_4 .def_20))) (let ((.def_180 (ite .def_179 fluent_ready_i1_t0@1 fluent_ready_i0_t0@1))) (let ((.def_181 (and .def_5 .def_19))) (let ((.def_182 (ite .def_181 fluent_ready_i0_t1@1 .def_180))) (let ((.def_183 (and .def_4 .def_19))) (let ((.def_184 (ite .def_183 fluent_ready_i1_t1@1 .def_182))) (let ((.def_185 (and .def_5 .def_18))) (let ((.def_186 (ite .def_185 fluent_ready_i0_t2@1 .def_184))) (let ((.def_187 (and .def_4 .def_18))) (let ((.def_188 (ite .def_187 fluent_ready_i1_t2@1 .def_186))) (let ((.def_189 (and .def_5 .def_17))) (let ((.def_190 (ite .def_189 fluent_ready_i0_t3@1 .def_188))) (let ((.def_191 (and .def_4 .def_17))) (let ((.def_192 (ite .def_191 fluent_ready_i1_t3@1 .def_190))) (let ((.def_193 (and .def_5 .def_16))) (let ((.def_194 (ite .def_193 fluent_ready_i0_t4@1 .def_192))) (let ((.def_195 (and .def_4 .def_16))) (let ((.def_196 (ite .def_195 fluent_ready_i1_t4@1 .def_194))) (let ((.def_197 (= .def_196 true))) (let ((.def_198 (=> true .def_197))) (let ((.def_199 (and .def_46 .def_198))) (let ((.def_200 (= fluent_busy_@1 false))) (let ((.def_201 (=> true .def_200))) (let ((.def_202 (and .def_4 .def_13))) (let ((.def_203 (ite .def_202 fluent_treated_i1_t0@1 fluent_treated_i0_t0@1))) (let ((.def_204 (and .def_5 .def_12))) (let ((.def_205 (ite .def_204 fluent_treated_i0_t1@1 .def_203))) (let ((.def_206 (and .def_4 .def_12))) (let ((.def_207 (ite .def_206 fluent_treated_i1_t1@1 .def_205))) (let ((.def_208 (and .def_5 .def_11))) (let ((.def_209 (ite .def_208 fluent_treated_i0_t2@1 .def_207))) (let ((.def_210 (and .def_4 .def_11))) (let ((.def_211 (ite .def_210 fluent_treated_i1_t2@1 .def_209))) (let ((.def_212 (and .def_5 .def_10))) (let ((.def_213 (ite .def_212 fluent_treated_i0_t3@1 .def_211))) (let ((.def_214 (and .def_4 .def_10))) (let ((.def_215 (ite .def_214 fluent_treated_i1_t3@1 .def_213))) (let ((.def_216 (and .def_5 .def_9))) (let ((.def_217 (ite .def_216 fluent_treated_i0_t4@1 .def_215))) (let ((.def_218 (and .def_4 .def_9))) (let ((.def_219 (ite .def_218 fluent_treated_i1_t4@1 .def_217))) (let ((.def_220 (= .def_219 true))) (let ((.def_221 (=> true .def_220))) (let ((.def_222 (and .def_128 .def_221 .def_201))) (let ((.def_223 (ite .def_202 fluent_started_i1_t0@1 fluent_started_i0_t0@1))) (let ((.def_224 (ite .def_204 fluent_started_i0_t1@1 .def_223))) (let ((.def_225 (ite .def_206 fluent_started_i1_t1@1 .def_224))) (let ((.def_226 (ite .def_208 fluent_started_i0_t2@1 .def_225))) (let ((.def_227 (ite .def_210 fluent_started_i1_t2@1 .def_226))) (let ((.def_228 (ite .def_212 fluent_started_i0_t3@1 .def_227))) (let ((.def_229 (ite .def_214 fluent_started_i1_t3@1 .def_228))) (let ((.def_230 (ite .def_216 fluent_started_i0_t4@1 .def_229))) (let ((.def_231 (ite .def_218 fluent_started_i1_t4@1 .def_230))) (let ((.def_232 (= .def_231 true))) (let ((.def_233 (=> true .def_232))) (let ((.def_234 (= fluent_busy_@1 true))) (let ((.def_235 (=> true .def_234))) (let ((.def_236 (ite .def_12 fluent_counter_t1@0 fluent_counter_t0@0))) (let ((.def_237 (ite .def_11 fluent_counter_t2@0 .def_236))) (let ((.def_238 (ite .def_10 fluent_counter_t3@0 .def_237))) (let ((.def_239 (ite .def_9 fluent_counter_t4@0 .def_238))) (let ((.def_240 (+ .def_239 1.0))) (let ((.def_241 (ite .def_12 fluent_counter_t1@1 fluent_counter_t0@1))) (let ((.def_242 (ite .def_11 fluent_counter_t2@1 .def_241))) (let ((.def_243 (ite .def_10 fluent_counter_t3@1 .def_242))) (let ((.def_244 (ite .def_9 fluent_counter_t4@1 .def_243))) (let ((.def_245 (= .def_244 .def_240))) (let ((.def_246 (=> true .def_245))) (let ((.def_247 (= t@1 t@1))) (let ((.def_248 (and .def_247 .def_246 .def_235 .def_233))) (let ((.def_249 (ite .def_179 fluent_started_i1_t0@0 fluent_started_i0_t0@0))) (let ((.def_250 (ite .def_181 fluent_started_i0_t1@0 .def_249))) (let ((.def_251 (ite .def_183 fluent_started_i1_t1@0 .def_250))) (let ((.def_252 (ite .def_185 fluent_started_i0_t2@0 .def_251))) (let ((.def_253 (ite .def_187 fluent_started_i1_t2@0 .def_252))) (let ((.def_254 (ite .def_189 fluent_started_i0_t3@0 .def_253))) (let ((.def_255 (ite .def_191 fluent_started_i1_t3@0 .def_254))) (let ((.def_256 (ite .def_193 fluent_started_i0_t4@0 .def_255))) (let ((.def_257 (ite .def_195 fluent_started_i1_t4@0 .def_256))) (let ((.def_258 (+ t@1 dur_make_treatment@1))) (let ((.def_259 (<= .def_258 t@1))) (let ((.def_260 (< (- 1.0) .def_258))) (let ((.def_261 (and .def_260 .def_259))) (let ((.def_262 (=> .def_261 .def_257))) (let ((.def_263 (ite .def_202 fluent_ready_i1_t0@0 fluent_ready_i0_t0@0))) (let ((.def_264 (ite .def_204 fluent_ready_i0_t1@0 .def_263))) (let ((.def_265 (ite .def_206 fluent_ready_i1_t1@0 .def_264))) (let ((.def_266 (ite .def_208 fluent_ready_i0_t2@0 .def_265))) (let ((.def_267 (ite .def_210 fluent_ready_i1_t2@0 .def_266))) (let ((.def_268 (ite .def_212 fluent_ready_i0_t3@0 .def_267))) (let ((.def_269 (ite .def_214 fluent_ready_i1_t3@0 .def_268))) (let ((.def_270 (ite .def_216 fluent_ready_i0_t4@0 .def_269))) (let ((.def_271 (ite .def_218 fluent_ready_i1_t4@0 .def_270))) (let ((.def_272 (ite .def_202 fluent_started_i1_t0@0 fluent_started_i0_t0@0))) (let ((.def_273 (ite .def_204 fluent_started_i0_t1@0 .def_272))) (let ((.def_274 (ite .def_206 fluent_started_i1_t1@0 .def_273))) (let ((.def_275 (ite .def_208 fluent_started_i0_t2@0 .def_274))) (let ((.def_276 (ite .def_210 fluent_started_i1_t2@0 .def_275))) (let ((.def_277 (ite .def_212 fluent_started_i0_t3@0 .def_276))) (let ((.def_278 (ite .def_214 fluent_started_i1_t3@0 .def_277))) (let ((.def_279 (ite .def_216 fluent_started_i0_t4@0 .def_278))) (let ((.def_280 (ite .def_218 fluent_started_i1_t4@0 .def_279))) (let ((.def_281 (not .def_280))) (let ((.def_282 (ite .def_202 fluent_treated_i1_t0@0 fluent_treated_i0_t0@0))) (let ((.def_283 (ite .def_204 fluent_treated_i0_t1@0 .def_282))) (let ((.def_284 (ite .def_206 fluent_treated_i1_t1@0 .def_283))) (let ((.def_285 (ite .def_208 fluent_treated_i0_t2@0 .def_284))) (let ((.def_286 (ite .def_210 fluent_treated_i1_t2@0 .def_285))) (let ((.def_287 (ite .def_212 fluent_treated_i0_t3@0 .def_286))) (let ((.def_288 (ite .def_214 fluent_treated_i1_t3@0 .def_287))) (let ((.def_289 (ite .def_216 fluent_treated_i0_t4@0 .def_288))) (let ((.def_290 (ite .def_218 fluent_treated_i1_t4@0 .def_289))) (let ((.def_291 (not .def_290))) (let ((.def_292 (not fluent_busy_@0))) (let ((.def_293 (and .def_12 .def_20))) (let ((.def_294 (ite .def_293 false false))) (let ((.def_295 (and .def_11 .def_20))) (let ((.def_296 (ite .def_295 false .def_294))) (let ((.def_297 (and .def_10 .def_20))) (let ((.def_298 (ite .def_297 false .def_296))) (let ((.def_299 (and .def_9 .def_20))) (let ((.def_300 (ite .def_299 false .def_298))) (let ((.def_301 (and .def_13 .def_19))) (let ((.def_302 (ite .def_301 true .def_300))) (let ((.def_303 (and .def_12 .def_19))) (let ((.def_304 (ite .def_303 false .def_302))) (let ((.def_305 (and .def_11 .def_19))) (let ((.def_306 (ite .def_305 false .def_304))) (let ((.def_307 (and .def_10 .def_19))) (let ((.def_308 (ite .def_307 false .def_306))) (let ((.def_309 (and .def_9 .def_19))) (let ((.def_310 (ite .def_309 false .def_308))) (let ((.def_311 (and .def_13 .def_18))) (let ((.def_312 (ite .def_311 false .def_310))) (let ((.def_313 (and .def_12 .def_18))) (let ((.def_314 (ite .def_313 true .def_312))) (let ((.def_315 (and .def_11 .def_18))) (let ((.def_316 (ite .def_315 false .def_314))) (let ((.def_317 (and .def_10 .def_18))) (let ((.def_318 (ite .def_317 false .def_316))) (let ((.def_319 (and .def_9 .def_18))) (let ((.def_320 (ite .def_319 false .def_318))) (let ((.def_321 (and .def_13 .def_17))) (let ((.def_322 (ite .def_321 false .def_320))) (let ((.def_323 (and .def_12 .def_17))) (let ((.def_324 (ite .def_323 false .def_322))) (let ((.def_325 (and .def_11 .def_17))) (let ((.def_326 (ite .def_325 true .def_324))) (let ((.def_327 (and .def_10 .def_17))) (let ((.def_328 (ite .def_327 false .def_326))) (let ((.def_329 (and .def_9 .def_17))) (let ((.def_330 (ite .def_329 false .def_328))) (let ((.def_331 (and .def_13 .def_16))) (let ((.def_332 (ite .def_331 false .def_330))) (let ((.def_333 (and .def_12 .def_16))) (let ((.def_334 (ite .def_333 false .def_332))) (let ((.def_335 (and .def_11 .def_16))) (let ((.def_336 (ite .def_335 false .def_334))) (let ((.def_337 (and .def_10 .def_16))) (let ((.def_338 (ite .def_337 true .def_336))) (let ((.def_339 (and .def_9 .def_16))) (let ((.def_340 (ite .def_339 false .def_338))) (let ((.def_341 (ite .def_4 1.0 0.0))) (let ((.def_342 (= .def_341 .def_239))) (let ((.def_343 (and .def_342 .def_340 .def_292 .def_291 .def_281 .def_271))) (let ((.def_344 (<= t@1 t@1))) (let ((.def_345 (< (- 1.0) t@1))) (let ((.def_346 (and .def_345 .def_344))) (let ((.def_347 (=> .def_346 .def_343))) (let ((.def_348 (<= dur_make_treatment@1 15.0))) (let ((.def_349 (<= 15.0 dur_make_treatment@1))) (let ((.def_350 (and .def_349 .def_348))) (let ((.def_351 (and .def_350 .def_259 .def_347 .def_262 .def_248 .def_222 .def_199))) (let ((.def_352 (=> act_make_treatment@1 .def_351))) (let ((.def_353 (<= fluent_counter_t4@0 31.0))) (let ((.def_354 (<= 0.0 fluent_counter_t4@0))) (let ((.def_355 (<= fluent_counter_t3@0 31.0))) (let ((.def_356 (<= 0.0 fluent_counter_t3@0))) (let ((.def_357 (<= fluent_counter_t2@0 31.0))) (let ((.def_358 (<= 0.0 fluent_counter_t2@0))) (let ((.def_359 (<= fluent_counter_t1@0 31.0))) (let ((.def_360 (<= 0.0 fluent_counter_t1@0))) (let ((.def_361 (<= fluent_counter_t0@0 31.0))) (let ((.def_362 (<= 0.0 fluent_counter_t0@0))) (let ((.def_363 (= fluent_counter_t4@0 0.0))) (let ((.def_364 (= fluent_counter_t3@0 0.0))) (let ((.def_365 (= fluent_counter_t2@0 0.0))) (let ((.def_366 (= fluent_counter_t1@0 0.0))) (let ((.def_367 (= fluent_counter_t0@0 0.0))) (let ((.def_368 (= false false))) (let ((.def_369 (= fluent_ready_i1_t4@0 false))) (let ((.def_370 (= fluent_ready_i0_t4@0 false))) (let ((.def_371 (= fluent_ready_i1_t3@0 false))) (let ((.def_372 (= fluent_ready_i0_t3@0 false))) (let ((.def_373 (= fluent_ready_i1_t2@0 false))) (let ((.def_374 (= fluent_ready_i0_t2@0 false))) (let ((.def_375 (= fluent_ready_i1_t1@0 false))) (let ((.def_376 (= fluent_ready_i0_t1@0 false))) (let ((.def_377 (= fluent_started_i1_t3@0 false))) (let ((.def_378 (= fluent_started_i0_t3@0 false))) (let ((.def_379 (= fluent_started_i1_t2@0 false))) (let ((.def_380 (= fluent_started_i0_t2@0 false))) (let ((.def_381 (= fluent_started_i1_t1@0 false))) (let ((.def_382 (= fluent_started_i0_t1@0 false))) (let ((.def_383 (= fluent_started_i1_t0@0 false))) (let ((.def_384 (= fluent_started_i0_t0@0 false))) (let ((.def_385 (= fluent_treated_i1_t4@0 false))) (let ((.def_386 (= fluent_treated_i0_t4@0 false))) (let ((.def_387 (= fluent_treated_i1_t3@0 false))) (let ((.def_388 (= fluent_treated_i0_t3@0 false))) (let ((.def_389 (= fluent_treated_i1_t2@0 false))) (let ((.def_390 (= fluent_treated_i0_t2@0 false))) (let ((.def_391 (= fluent_treated_i1_t1@0 false))) (let ((.def_392 (= fluent_treated_i0_t1@0 false))) (let ((.def_393 (= fluent_treated_i1_t0@0 false))) (let ((.def_394 (= fluent_treated_i0_t0@0 false))) (let ((.def_395 (= fluent_busy_@0 false))) (let ((.def_396 (= fluent_ready_i1_t0@0 true))) (let ((.def_397 (= fluent_started_i1_t4@0 true))) (let ((.def_398 (= fluent_ready_i0_t0@0 true))) (let ((.def_399 (= fluent_started_i0_t4@0 true))) (let ((.def_400 (= true true))) (let ((.def_401 (= 1.0 1.0))) (let ((.def_402 (= 0.0 0.0))) (let ((.def_403 (and .def_402 .def_401 .def_400 .def_400 .def_400 .def_400 .def_399 .def_398 .def_397 .def_396 .def_395 .def_394 .def_393 .def_392 .def_391 .def_390 .def_389 .def_388 .def_387 .def_386 .def_385 .def_384 .def_383 .def_382 .def_381 .def_380 .def_379 .def_378 .def_377 .def_376 .def_375 .def_374 .def_373 .def_372 .def_371 .def_370 .def_369 .def_368 .def_368 .def_368 .def_368 .def_368 .def_368 .def_368 .def_368 .def_368 .def_368 .def_368 .def_368 .def_368 .def_368 .def_368 .def_368 .def_368 .def_368 .def_368 .def_368 .def_368 .def_367 .def_366 .def_365 .def_364 .def_363 .def_362 .def_361 .def_360 .def_359 .def_358 .def_357 .def_356 .def_355 .def_354 .def_353))) (let ((.def_404 (and .def_403 .def_352 .def_178 true true .def_177 .def_24 .def_23 .def_22 .def_21 .def_15 .def_14 .def_8 .def_7 .def_6 .def_3 .def_2 .def_1 .def_0 true))) .def_404))))))))))))))))))))))))))))))))))))))))))))))))))))))))))))))))))))))))))))))))))))))))))))))))))))))))))))))))))))))))))))))))))))))))))))))))))))))))))))))))))))))))))))))))))))))))))))))))))))))))))))))))))))))))))))))))))))))))))))))))))))))))))))))))))))))))))))))))))))))))))))))))))))))))))))))))))))))))))))))))))))))))))))))))))))))))))))))))))))))))))))))))))))))))))))))))))))))))))))))))))))))
(check-sat)


